2
300 2
80
40 1 70
4 1 21
52 1 62
73 1 15
89 1 35
56 1 11
62 1 65
30 1 54
16 1 65
7 1 22
27 1 79
31 1 26
8 1 84
80 1 10
3 1 92
65 1 53
89 1 47
30 1 64
78 1 27
53 1 90
13 1 42
46 1 7
74 1 38
52 1 26
70 1 92
50 1 93
47 1 16
50 1 84
82 1 53
98 1 11
86 1 81
70 1 19
4 1 12
78 1 85
13 1 91
66 1 20
25 1 94
13 1 68
84 1 33
29 1 9
68 1 52
58 1 51
88 1 29
79 1 41
88 1 76
3 1 56
46 1 36
74 1 6
74 1 88
69 1 37
15 1 43
1 1 27
48 1 44
12 1 85
83 1 71
82 1 57
65 1 33
22 1 21
73 1 75
74 1 87
16 1 76
19 1 100
39 1 46
66 1 38
21 1 30
60 1 12
72 1 5
79 1 66
36 1 83
33 1 79
92 1 8
69 1 60
51 1 58
62 1 56
57 1 43
24 1 42
87 1 9
1 1 32
54 1 33
68 1 68
